* ENCODING=ISO-8859-1
NAME          CPLEX
ROWS
 N  obj1    
 G  c1      
 G  c2      
 G  c3      
 G  c4      
 G  c5      
 G  c6      
 G  c7      
 G  c8      
 G  c9      
 G  c10     
 G  c11     
 G  c12     
 G  c13     
 G  c14     
 G  c15     
 G  c16     
 G  c17     
 G  c18     
 G  c19     
 G  c20     
 G  c21     
 G  c22     
 G  c23     
 G  c24     
 G  c25     
 G  c26     
 G  c27     
 G  c28     
 G  c29     
 G  c30     
 G  c31     
 G  c32     
 G  c33     
 G  c34     
 G  c35     
COLUMNS
    MARK0000  'MARKER'                 'INTORG'
    x1        obj1                            1
    x1        c9                            782
    x1        c25                           858
    x1        c26                           207
    x1        c30                           819
    x1        c35                           733
    x2        obj1                            1
    x2        c5                            985
    x2        c13                           436
    x3        obj1                            1
    x3        c18                           300
    x3        c34                           673
    x4        obj1                            1
    x4        c20                           656
    x5        obj1                            1
    x5        c3                            984
    x5        c4                            634
    x5        c10                           917
    x5        c17                           630
    x5        c35                           935
    x6        obj1                            1
    x6        c12                           793
    x6        c14                           906
    x6        c15                           764
    x6        c18                           971
    x6        c35                           995
    x7        obj1                            1
    x7        c1                            169
    x7        c2                            261
    x7        c5                            873
    x7        c8                            247
    x8        obj1                            1
    x8        c2                            623
    x8        c5                            106
    x8        c18                           576
    x8        c21                           103
    x8        c22                           921
    x8        c31                           115
    x9        obj1                            1
    x9        c16                           880
    x10       obj1                            1
    x10       c3                            943
    x10       c21                           528
    x10       c33                           633
    x10       c34                           102
    x11       obj1                            1
    x11       c11                           848
    x11       c17                           317
    x11       c27                           649
    x11       c35                           870
    x12       obj1                            1
    x12       c13                           703
    x12       c16                           931
    x12       c19                           993
    x13       obj1                            1
    x13       c21                           610
    x13       c24                           800
    x14       obj1                            1
    x14       c4                            214
    x14       c22                           936
    x14       c31                           628
    x15       obj1                            1
    x15       c20                           377
    x15       c24                           863
    x15       c32                           311
    x15       c34                           340
    x16       obj1                            1
    x16       c16                           960
    x16       c21                           992
    x16       c31                           851
    x16       c35                           749
    x17       obj1                            1
    x17       c9                            603
    x17       c17                           514
    x17       c21                           787
    x17       c22                           186
    x17       c30                           626
    x17       c32                           361
    x17       c35                           227
    x18       obj1                            1
    x18       c2                            174
    x18       c14                           948
    x18       c20                           931
    x18       c31                           616
    x18       c33                           710
    x18       c35                           769
    x19       obj1                            1
    x19       c24                           344
    x20       obj1                            1
    x20       c11                           655
    x20       c13                           655
    x21       obj1                            1
    x21       c1                            800
    x21       c3                            105
    x21       c7                            512
    x21       c17                           394
    x21       c23                           724
    x21       c24                           416
    x21       c34                           821
    x22       obj1                            1
    x22       c6                            999
    x22       c9                            501
    x22       c13                           780
    x22       c14                           935
    x22       c17                           479
    x22       c23                           856
    x22       c26                           132
    x22       c28                           877
    x23       obj1                            1
    x23       c4                            317
    x23       c5                            537
    x23       c7                            870
    x23       c19                           885
    x24       obj1                            1
    x24       c3                            796
    x24       c9                            747
    x24       c11                           376
    x24       c20                           945
    x24       c24                           485
    x25       obj1                            1
    x25       c5                            840
    x25       c22                           560
    x25       c32                           913
    x26       obj1                            1
    x26       c4                            713
    x26       c28                           801
    x26       c32                           106
    x27       obj1                            1
    x27       c2                            339
    x27       c5                            922
    x27       c22                           978
    x27       c33                           890
    x28       obj1                            1
    x28       c7                            706
    x28       c15                           475
    x28       c17                           448
    x28       c18                           933
    x28       c22                           208
    x29       obj1                            1
    x29       c14                           270
    x29       c24                           871
    x30       obj1                            1
    x30       c2                            964
    x30       c6                            493
    x30       c18                           179
    x30       c31                           714
    x31       obj1                            1
    x31       c17                           933
    x31       c21                           396
    x31       c23                           714
    x32       obj1                            1
    x32       c1                            245
    x32       c9                            875
    x32       c25                           709
    x32       c27                           274
    x32       c31                           701
    x33       obj1                            1
    x33       c5                            929
    x33       c6                            654
    x33       c15                           513
    x33       c21                           464
    x34       obj1                            1
    x34       c1                            242
    x34       c4                            964
    x34       c26                           173
    x34       c34                           154
    x35       obj1                            1
    x35       c1                            571
    x35       c30                           880
    x35       c31                           859
    x35       c33                           902
    x36       obj1                            1
    x36       c25                           396
    x36       c29                           328
    x37       obj1                            1
    x37       c26                           450
    x37       c28                           821
    x38       obj1                            1
    x38       c3                            481
    x38       c9                            453
    x39       obj1                            1
    x39       c10                           666
    x39       c15                           292
    x39       c27                           556
    x39       c29                           558
    x40       obj1                            1
    x40       c6                            926
    x40       c8                            748
    x40       c24                           970
    x40       c25                           971
    x40       c31                           278
    x41       obj1                            1
    x41       c3                            698
    x41       c12                           923
    x41       c18                           735
    x41       c23                           652
    x41       c30                           790
    x41       c33                           726
    x42       obj1                            1
    x42       c2                            797
    x42       c7                            522
    x42       c12                           590
    x42       c19                           180
    x42       c22                           211
    x42       c25                           761
    x42       c29                           853
    x43       obj1                            1
    x43       c12                           551
    x44       obj1                            1
    x44       c6                            535
    x44       c7                            567
    x44       c9                            556
    x44       c18                           600
    x44       c23                           466
    x45       obj1                            1
    x45       c2                            861
    x45       c11                           248
    x45       c21                           758
    x45       c24                           130
    x45       c34                           361
    x46       obj1                            1
    x46       c3                            336
    x46       c13                           726
    x46       c14                           863
    x46       c34                           919
    x47       obj1                            1
    x47       c16                           529
    x47       c27                           736
    x48       obj1                            1
    x49       obj1                            1
    x49       c9                            646
    x49       c14                           857
    x50       obj1                            1
    x50       c1                            470
    x50       c35                           943
    x51       obj1                            1
    x51       c2                            924
    x51       c16                           672
    x52       obj1                            1
    x52       c4                            634
    x52       c9                            543
    x52       c14                           880
    x52       c15                           195
    x52       c32                           479
    x53       obj1                            1
    x53       c12                           708
    x54       obj1                            1
    x54       c6                            175
    x54       c7                            479
    x54       c8                            392
    x54       c10                           158
    x54       c18                           256
    x54       c34                           124
    x54       c35                           267
    x55       obj1                            1
    x55       c6                            572
    x55       c16                           512
    x55       c30                           154
    x56       obj1                            1
    x56       c11                           287
    x56       c19                           328
    x56       c22                           466
    x57       obj1                            1
    x57       c14                           421
    x57       c23                           924
    x57       c35                           815
    x58       obj1                            1
    x58       c4                            212
    x58       c16                           555
    x58       c27                           578
    x58       c33                           502
    x59       obj1                            1
    x59       c5                            535
    x59       c6                            502
    x59       c8                            191
    x59       c10                           323
    x59       c26                           698
    x59       c29                           990
    x59       c30                           763
    x59       c31                           521
    x60       obj1                            1
    x60       c16                           504
    x60       c29                           609
    x60       c31                           542
    x60       c33                           588
    x61       obj1                            1
    x61       c9                            703
    x61       c14                           905
    x61       c15                           355
    x61       c24                           836
    x62       obj1                            1
    x62       c4                            516
    x63       obj1                            1
    x63       c1                            724
    x63       c5                            163
    x63       c8                            936
    x63       c14                           448
    x64       obj1                            1
    x64       c1                            404
    x64       c8                            899
    x64       c23                           482
    x65       obj1                            1
    x65       c8                            672
    x65       c24                           832
    x66       obj1                            1
    x66       c6                            345
    x66       c16                           828
    x66       c18                           984
    x66       c26                           583
    x66       c29                           813
    x67       obj1                            1
    x67       c1                            446
    x67       c11                           812
    x67       c16                           960
    x67       c26                           230
    x68       obj1                            1
    x68       c23                           320
    x68       c26                           854
    x68       c28                           576
    x69       obj1                            1
    x69       c1                            430
    x69       c8                            956
    x69       c17                           784
    x69       c23                           664
    x69       c27                           367
    x70       obj1                            1
    x70       c6                            632
    x70       c13                           876
    MARK0001  'MARKER'                 'INTEND'
RHS
    rhs       c1                           2251
    rhs       c2                           2472
    rhs       c3                           2172
    rhs       c4                           2102
    rhs       c5                           2945
    rhs       c6                           2917
    rhs       c7                           1828
    rhs       c8                           2521
    rhs       c9                           3205
    rhs       c10                          1032
    rhs       c11                          1613
    rhs       c12                          1783
    rhs       c13                          2088
    rhs       c14                          3717
    rhs       c15                          1297
    rhs       c16                          3666
    rhs       c17                          2250
    rhs       c18                          2767
    rhs       c19                          1193
    rhs       c20                          1455
    rhs       c21                          2319
    rhs       c22                          2233
    rhs       c23                          2901
    rhs       c24                          3274
    rhs       c25                          1848
    rhs       c26                          1664
    rhs       c27                          1580
    rhs       c28                          1538
    rhs       c29                          2076
    rhs       c30                          2016
    rhs       c31                          2913
    rhs       c32                          1085
    rhs       c33                          2476
    rhs       c34                          1747
    rhs       c35                          3652
BOUNDS
 LI bnd       x1        0
 LI bnd       x2        0
 LI bnd       x3        0
 LI bnd       x4        0
 LI bnd       x5        0
 LI bnd       x6        0
 LI bnd       x7        0
 LI bnd       x8        0
 LI bnd       x9        0
 LI bnd       x10       0
 LI bnd       x11       0
 LI bnd       x12       0
 LI bnd       x13       0
 LI bnd       x14       0
 LI bnd       x15       0
 LI bnd       x16       0
 LI bnd       x17       0
 LI bnd       x18       0
 LI bnd       x19       0
 LI bnd       x20       0
 LI bnd       x21       0
 LI bnd       x22       0
 LI bnd       x23       0
 LI bnd       x24       0
 LI bnd       x25       0
 LI bnd       x26       0
 LI bnd       x27       0
 LI bnd       x28       0
 LI bnd       x29       0
 LI bnd       x30       0
 LI bnd       x31       0
 LI bnd       x32       0
 LI bnd       x33       0
 LI bnd       x34       0
 LI bnd       x35       0
 LI bnd       x36       0
 LI bnd       x37       0
 LI bnd       x38       0
 LI bnd       x39       0
 LI bnd       x40       0
 LI bnd       x41       0
 LI bnd       x42       0
 LI bnd       x43       0
 LI bnd       x44       0
 LI bnd       x45       0
 LI bnd       x46       0
 LI bnd       x47       0
 LI bnd       x48       0
 LI bnd       x49       0
 LI bnd       x50       0
 LI bnd       x51       0
 LI bnd       x52       0
 LI bnd       x53       0
 LI bnd       x54       0
 LI bnd       x55       0
 LI bnd       x56       0
 LI bnd       x57       0
 LI bnd       x58       0
 LI bnd       x59       0
 LI bnd       x60       0
 LI bnd       x61       0
 LI bnd       x62       0
 LI bnd       x63       0
 LI bnd       x64       0
 LI bnd       x65       0
 LI bnd       x66       0
 LI bnd       x67       0
 LI bnd       x68       0
 LI bnd       x69       0
 LI bnd       x70       0
ENDATA
